11
-1 50 74 59 31 73 45 79 24 10 41
66 -1 43 88 4 28 30 41 13 4 70
10 58 -1 34 100 79 17 36 98 27 13
68 11 34 -1 50 80 22 68 73 94 37
86 46 29 92 -1 58 2 54 9 45 69
91 25 97 31 4 -1 67 50 25 2 54
78 9 29 34 99 82 -1 14 66 15 64
37 26 70 16 95 30 2 -1 96 6 5
52 99 89 24 6 83 53 67 -1 38 39
45 2 98 72 29 38 59 78 98 -1 5
10 32 46 76 36 99 43 100 69 13 -1